!File created by the GAMESS Input Deck Generator Plugin for Avogadro
 $BASIS GBASIS=STO NGAUSS=3 $END
 $CONTRL SCFTYP=RHF RUNTYP=SADPOINT $END
 $STATPT hssend=.t. OPTTOL=0.0005 NSTEP=50 $END
 $STATPT HESS=calc ihrep=5 $END
 $FORCE nvib=2 $END
 $ZMAT DLC=.t. auto=.t. nonvdw(1)=1,17,9,18,1,9,9,13,17,18 $END
!$ZMAT IFZMAT(1)=1,1,17,1,9,18 fvalue(1)=2.00,2.00 $END


 $DATA 
Title
C1
C     6.0    -5.85534763    -0.29922968     0.81461990
C     6.0    -6.70306301     0.96249431     0.65426576
C     6.0    -5.96784830     1.76162696    -0.45425114
H     1.0    -6.70374012     1.50842178     1.59818876
H     1.0    -7.73618746     0.74501574     0.39427793
C     6.0    -4.52851677     1.18566692    -0.49132779
H     1.0    -5.96807861     2.82915592    -0.25223374
H     1.0    -6.45446777     1.60058951    -1.41175675
C     6.0    -4.64623404    -0.18397591     0.19672097
H     1.0    -3.84285951     1.79691339     0.09534418
H     1.0    -4.12975025     1.10938692    -1.49962306
H     1.0    -6.08055544    -1.04117894     1.56907392
C     6.0    -3.39914989    -1.00860393     0.50007826
H     1.0    -3.66706061    -1.98516190     0.88972771
H     1.0    -2.80714846    -0.48192021     1.24632370
H     1.0    -2.79424167    -1.13620222    -0.39232942
B     5.0    -5.86568689    -1.36298823    -0.87898892
H     1.0    -4.93766546    -1.15011513    -1.53002238
H     1.0    -6.83915138    -0.90460950    -1.29580569
H     1.0    -5.89687300    -2.42227936    -0.42154202
 $END
