!File created by the GAMESS Input Deck Generator Plugin for Avogadro
 $BASIS GBASIS=STO NGAUSS=3 $END
 $CONTRL SCFTYP=RHF RUNTYP=OPTIMIZE NZVAR=1 mult=1  ICHARG=0 $END
 $STATPT hssend=.t. OPTTOL=0.0005 NSTEP=50 $END
 $STATPT HESS=calc ihrep=5 $END
 $FORCE nvib=2 $END
 $ZMAT DLC=.t. auto=.t. nonvdw(1)=1,17,9,18 $END
 $ZMAT IFZMAT(1)=1,1,17,1,9,18 fvalue(1)=2.00,2.00 $END


 $DATA 
Title
C1
C     6.0    -5.82012    -0.33552     0.62182
C     6.0    -6.72390     0.84740     0.30906
C     6.0    -5.70579     1.95965     0.05334
H     1.0    -7.43015     1.10801     1.12511
H     1.0    -7.29358     0.65075    -0.62483
C     6.0    -4.59498     1.21073    -0.66544
H     1.0    -5.30460     2.29887     1.03755
H     1.0    -6.10971     2.84299    -0.48495
C     6.0    -4.56315    -0.03709     0.15909
H     1.0    -3.63168     1.76075    -0.72020
H     1.0    -4.94618     0.95671    -1.69082
H     1.0    -5.94302    -1.02588     1.47450
C     6.0    -3.30285    -0.73834     0.58395
H     1.0    -3.53163    -1.59521     1.25270
H     1.0    -2.64651    -0.02519     1.12471
H     1.0    -2.76834    -1.11580    -0.31269
B     5.0    -6.25824    -1.84149    -0.74415
H     1.0    -5.13689    -1.47094    -1.12626
H     1.0    -7.16204    -1.63054    -1.47800
H     1.0    -6.30142    -2.88010    -0.17547
 $END
