!File created by the GAMESS Input Deck Generator Plugin for Avogadro
 $BASIS GBASIS=STO NGAUSS=3 $END
 $CONTRL SCFTYP=RHF RUNTYP=IRC $END
 $STATPT HESS=READ ihrep=5 $END
 $irc npoint=100 saddle=.t. tsengy=.t. forwrd=.t. optto=0.0005 stride=0.1 $END

 $DATA 
Title
C1
C     6.0    -5.81869888    -0.31928137     0.80964559
C     6.0    -6.72618532     0.89708871     0.63393766
C     6.0    -5.96187544     1.80291522    -0.37303302
H     1.0    -6.84693861     1.38945234     1.59891117
H     1.0    -7.71606255     0.62470365     0.27552110
C     6.0    -4.54726887     1.17863536    -0.53680682
H     1.0    -5.89574718     2.82393980    -0.00661820
H     1.0    -6.47747135     1.82738757    -1.32835960
C     6.0    -4.60925674    -0.15100846     0.22694132
H     1.0    -3.77597857     1.80377591    -0.08825268
H     1.0    -4.28125715     1.02492332    -1.58049047
H     1.0    -6.02459955    -1.06393564     1.56717694
C     6.0    -3.34030485    -0.93971741     0.52722895
H     1.0    -3.57823682    -1.90555203     0.96123391
H     1.0    -2.73906898    -0.37430698     1.23738790
H     1.0    -2.75359559    -1.08943641    -0.37406680
B     5.0    -5.88795805    -1.38474441    -0.90783155
H     1.0    -4.89585447    -1.61691046    -1.45861101
H     1.0    -6.61322784    -0.70465505    -1.49429786
H     1.0    -6.33404016    -2.30026746    -0.35887620
 $END

$HESS
ENERGY IS     -256.3426480534 E(NUC) IS      307.5116409865
 1  1 8.38780285E-01-4.09375082E-02-3.15967919E-01-1.79152947E-01 1.06879377E-01
 1  2-6.97511831E-03 1.04158309E-02-8.84219184E-03-1.51518912E-03-4.40017575E-03
 1  3 6.09286371E-03-1.67132342E-03-1.48634866E-02 3.56445018E-02-1.52117125E-03
 1  4-5.04917273E-03-1.07940891E-02 1.21672122E-02-2.49925174E-03-6.90183223E-04
 1  5 2.24940893E-03-1.57150285E-03-1.16883905E-03 6.74945253E-04-5.22975655E-01
 1  6-6.33975923E-02 1.92336049E-01 9.49539436E-05 1.04205617E-03-7.37565408E-05
 1  7-4.86944023E-04 1.07962533E-03-3.70596956E-04-8.44918098E-02-4.76822094E-02
 1  8 6.74707186E-02-2.05215402E-02-3.47318706E-03 1.96979621E-02 2.01932057E-03
 1  9-1.55791499E-03 6.29176660E-04 1.12878261E-03 4.64271590E-04 1.31543307E-03
 1 10-1.93312122E-03 1.78915694E-03-1.81090829E-03-1.81784055E-02 4.13291244E-02
 1 11 5.48219718E-02 4.38458340E-03 3.67294772E-03 4.25357815E-03-1.09415068E-03
 1 12-1.00893630E-02-1.33371648E-02 3.94193218E-04-9.36090284E-03-1.23733542E-02
 2  1-4.09375082E-02 6.68252724E-01-3.33511900E-01 8.94221941E-02-2.32637042E-01
 2  2 2.94098049E-02 3.88732940E-03-3.07952871E-02 1.30568096E-02 1.27621801E-02
 2  3-1.33006823E-02 5.96352854E-03-5.39388995E-03 1.20905574E-02-2.62412099E-03
 2  4-3.04858886E-02-6.25889730E-03 2.15193055E-02-2.40094394E-04-9.61438338E-04
 2  5 2.66513047E-03 2.70728376E-04-1.21688996E-03 1.29133387E-06-1.18194173E-02
 2  6-1.20434797E-01 5.17192448E-02 1.30183479E-03-3.75098292E-03 3.12874147E-03
 2  7 1.33930655E-03-5.37052382E-03 1.01861158E-03-3.71973950E-02-2.58071177E-01
 2  8 2.10051100E-01 2.27388363E-02 5.79675730E-03-1.33737105E-02-1.37098726E-03
 2  9 2.18470690E-03-1.21781609E-03 2.77801885E-04-1.29731653E-04-4.20079711E-05
 2 10 4.44994220E-03-1.10769650E-03 2.22663860E-03-1.03316018E-02 3.38185358E-03
 2 11 2.59765118E-02 1.69855002E-03-1.31773988E-03 4.31440254E-03 1.05453744E-03
 2 12-3.03772475E-03-3.01034282E-03-1.42668384E-03-1.33165429E-02-1.72712779E-02
 3  1-3.15967919E-01-3.33511900E-01 6.02779694E-01-3.48168309E-03 2.75916598E-02
 3  2-1.08155530E-01-1.16069019E-02 2.69863619E-02-5.21393742E-03 2.33982685E-02
 3  3-3.07392924E-02 1.01212181E-02-2.98485262E-03 1.13254976E-02-4.37145955E-04
 3  4 1.90505265E-02 1.52198164E-02-1.27963785E-02 2.08031376E-03 1.24259077E-03
 3  5-3.28012098E-03 1.93828776E-03 9.71983210E-04-9.34512782E-04 2.56225330E-01
 3  6 7.94651570E-02-1.90422700E-01-7.88677875E-06-6.29065841E-04-5.17273346E-04
 3  7 7.03706053E-04 1.58041642E-03-5.41076180E-04 6.11087547E-02 2.10642600E-01
 3  8-2.61686757E-01-7.43012381E-03-2.63704286E-03 8.46419202E-03-1.20429204E-03
 3  9-3.88240169E-04 6.08655703E-04-2.44586637E-03 1.93047357E-03 3.40463585E-05
 3 10-1.39622892E-03 1.88094073E-03-1.22267941E-03-2.00267312E-02-2.01129723E-03
 3 11-1.51658778E-02 4.21554815E-04 4.61617975E-03 1.24695934E-03 2.49532828E-04
 3 12-8.51711257E-03-1.33017824E-02 1.37606796E-03-5.02026373E-03-9.57931628E-03
 4  1-1.79152947E-01 8.94221941E-02-3.48168309E-03 8.56025867E-01 1.82971483E-02
 4  2 1.32266568E-02-1.53116678E-01-5.09044848E-02 5.12801727E-02-8.16996110E-02
 4  3 1.49975441E-02 3.14451926E-02-3.92310836E-01-9.12485265E-02-1.19503511E-01
 4  4-2.64788300E-02-1.63790388E-02 2.17723225E-02-4.48689740E-04 2.54356206E-04
 4  5 3.53141185E-03 1.09313363E-02 1.17359380E-02-1.04340746E-02-3.85131222E-02
 4  6 2.95141771E-02 3.61966424E-03-2.25850508E-03 1.44153504E-03 9.57000297E-04
 4  7-3.54814582E-03 1.62866763E-03-1.37600556E-03 9.70490843E-03-1.03525815E-02
 4  8 2.49074116E-03-6.27298118E-04 1.10944600E-03 7.36977679E-03 2.74597798E-04
 4  9-2.64167641E-04 1.85747596E-05 7.22034063E-04-5.37431304E-04 2.21087409E-05
 4 10-1.46226193E-03 6.43503012E-04-7.57194406E-04 3.37497325E-03 1.42816526E-03
 4 11 1.05478921E-03-1.10267344E-03-8.11696057E-04-1.05634366E-03-1.94526014E-04
 4 12-6.94899108E-06-3.49677037E-04-1.19510050E-04 3.21962045E-05 1.70153145E-04
 5  1 1.06879377E-01-2.32637042E-01 2.75916598E-02 1.82971483E-02 6.67958309E-01
 5  2 8.37612717E-02-5.70030489E-02-1.72910397E-01 6.49982302E-02 1.67853409E-02
 5  3-1.49608523E-01-1.53042653E-01-9.07825408E-02-9.62821293E-02-3.48315189E-02
 5  4-2.76600819E-03 9.39480039E-03-9.40408196E-03-1.96951841E-02-1.36443708E-02
 5  5 3.01161770E-02-7.52657252E-04 2.10813349E-03-2.63761846E-03 1.01033629E-02
 5  6 4.98614490E-03-3.02180013E-03 8.34951377E-04-2.12397486E-03 4.08012524E-04
 5  7 2.28203391E-03-1.96615009E-03 9.11571293E-04 1.33624456E-02-7.10399167E-03
 5  8-4.67786206E-03-1.48323599E-03 9.03476260E-04 5.88883618E-03-2.39392825E-05
 5  9 2.92333227E-06 2.92331671E-05 4.68039562E-04-2.52162003E-04-5.76979861E-05
 5 10-1.18330844E-03 9.02173856E-04-5.41476397E-04 2.91043971E-03-9.79139688E-03
 5 11-7.60601728E-03 7.04313028E-04-4.50372358E-04 6.82391084E-04 1.34231491E-03
 5 12 9.49496028E-05 1.23645368E-03-2.79802437E-04 4.19524960E-04 1.96956247E-04
 6  1-6.97511831E-03 2.94098049E-02-1.08155530E-01 1.32266568E-02 8.37612717E-02
 6  2 7.98368360E-01 5.52595493E-02 6.37428725E-02-1.95196328E-01 3.51371794E-02
 6  3-1.54798842E-01-3.68708834E-01-1.20154043E-01-3.53533795E-02-1.19780659E-01
 6  4 9.75201361E-03-3.93951756E-03-7.93186528E-03-8.26018415E-03-8.85698031E-03
 6  5 1.06287282E-02 2.49672159E-02 2.28286612E-02-1.74161662E-02 4.48965032E-04
 6  6-9.71572965E-03 6.54696460E-03-7.25720159E-04 6.64359369E-04-8.55670438E-05
 6  7 1.10814140E-03 1.46695515E-03-4.70847114E-04-1.81693666E-02 1.42175659E-02
 6  8 3.47139024E-03 2.03717465E-03 7.83584073E-03 6.37134583E-03-2.43968333E-04
 6  9 2.31034334E-04-3.05680229E-04 2.01898702E-03-1.66191752E-03-5.80447051E-05
 6 10-7.42478281E-04 2.37085136E-04-1.20227299E-04 1.18613438E-02-6.36592391E-03
 6 11-5.81388576E-03-1.29997909E-03-2.79746817E-03-1.82270903E-03 1.27697564E-03
 6 12-1.42601310E-03-2.80342549E-04-5.23471186E-04 5.20260732E-04 7.60184806E-04
 7  1 1.04158309E-02 3.88732940E-03-1.16069019E-02-1.53116678E-01-5.70030489E-02
 7  2 5.52595493E-02 6.77020196E-01-9.16594833E-03 9.84476466E-02-2.52827681E-05
 7  3-2.42818245E-03-1.10241519E-03-7.99701468E-03-1.99724965E-02 2.69767131E-02
 7  4-2.61051784E-01 6.67281612E-02 1.09787731E-02-7.39467669E-02-2.31908918E-02
 7  5-1.27768904E-02-1.58464298E-01 3.11373819E-03-1.66366723E-01-2.38605297E-03
 7  6 1.58182502E-02-6.22230094E-03-1.91014517E-02 1.76533441E-02 5.94535332E-03
 7  7-5.92791338E-03 3.11936149E-03-3.97019857E-03-3.85311074E-03 2.88207079E-03
 7  8 1.46256514E-03-5.71904928E-04-1.46026128E-03 1.51795944E-03 4.80551446E-04
 7  9-2.26989045E-04 1.80948627E-04-7.86501561E-05 6.25863099E-05 2.79665015E-05
 7 10-1.03066779E-04 3.67875203E-05-9.38557783E-06-1.23831431E-03 3.22213707E-04
 7 11 1.45909958E-03 2.27466264E-04 3.83974767E-04 3.69215069E-04-1.42602591E-04
 7 12-2.81814934E-04-1.83276527E-04-1.38941432E-04-2.78318837E-04-3.87614636E-04
 8  1-8.84219184E-03-3.07952871E-02 2.69863619E-02-5.09044848E-02-1.72910397E-01
 8  2 6.37428725E-02-9.16594833E-03 8.47742097E-01 3.60328878E-02 8.74255045E-03
 8  3 1.23948689E-02-1.06089870E-02-9.35657346E-04-4.18276892E-03 7.34332601E-03
 8  4 6.23469456E-02-1.41089807E-01-1.11845609E-02-2.36389140E-02-4.14582419E-01
 8  5-1.25895054E-01 2.60458479E-03-7.89646342E-02 2.36162376E-03 3.23700278E-02
 8  6-2.11153064E-02 3.03751783E-03-1.88919545E-02 1.24213284E-02 3.73749651E-03
 8  7 4.51203375E-03-1.11319772E-03 1.64771342E-03 4.13863039E-03-1.99346796E-03
 8  8-8.60823830E-04-3.00337301E-03-3.63273791E-03 2.76639738E-03 1.34314818E-03
 8  9-3.55452122E-04 2.85054517E-04-1.23768750E-04 5.15145043E-05-3.43124835E-05
 8 10-4.14467689E-04 2.04444743E-04-1.70550699E-05-4.72775878E-04-1.19948311E-03
 8 11 2.36587328E-04-2.33109905E-05 1.84306302E-04 1.25430727E-04 2.30397805E-04
 8 12-1.12965302E-03 3.84705088E-04 1.28594376E-04 6.62569729E-05-8.71837465E-05
 9  1-1.51518912E-03 1.30568096E-02-5.21393742E-03 5.12801727E-02 6.49982302E-02
 9  2-1.95196328E-01 9.84476466E-02 3.60328878E-02 8.15677509E-01 1.66213609E-02
 9  3 2.78774423E-02-1.61591818E-02-6.17360941E-03-8.71290090E-03 1.04217617E-02
 9  4 1.36821457E-02-1.44063501E-02-1.19415668E-01-1.28656028E-02-1.26060558E-01
 9  5-1.23453678E-01-1.66027095E-01 3.41395386E-03-3.77982563E-01-1.46344404E-02
 9  6 5.32702137E-03 1.88067479E-03-1.58749512E-02 1.01090822E-02 3.69512005E-03
 9  7 3.35251692E-02-1.55138486E-02 5.45430621E-03 1.07591877E-03 3.38686913E-04
 9  8 1.24953064E-03 2.05934403E-03 3.59782791E-03-8.62086509E-04-8.75200851E-04
 9  9 4.47972352E-04-1.10002200E-04 3.65115230E-04-2.49922120E-04 1.04564316E-04
 9 10 9.55201707E-05-1.03844266E-04 1.02970995E-05 9.36096511E-04 5.02877328E-04
 9 11-5.08341569E-05-1.92845432E-04-3.11775326E-04-2.50272994E-04 7.18541961E-05
 9 12-4.99158168E-04-6.10300870E-05-1.42117348E-06 1.55624873E-04 2.61937474E-04
10  1-4.40017575E-03 1.27621801E-02 2.33982685E-02-8.16996110E-02 1.67853409E-02
10  2 3.51371794E-02-2.52827681E-05 8.74255045E-03 1.66213609E-02 7.68716591E-02
10  3-1.91275436E-02-3.68684954E-02 1.00012342E-02-1.98075678E-02-3.78682665E-02
10  4-7.50249231E-04 3.99410213E-05 1.42912880E-03 1.50660879E-03 1.10691710E-03
10  5-7.52047942E-04-1.31799812E-03-8.21451020E-04 9.55295184E-04 1.29558124E-03
10  6 2.46893808E-03 7.74194045E-05 3.28090059E-05-3.83658178E-05-7.63706305E-05
10  7-4.73000712E-04-1.34970734E-04-4.42879121E-05 7.34874887E-04-7.95106573E-04
10  8-3.89294318E-04-3.65118573E-04-1.19967205E-03-1.22096620E-03 7.11629823E-06
10  9-3.49516284E-05 4.11990411E-05-3.95782627E-04 3.36716414E-04 1.21942899E-05
10 10 1.43210650E-04-5.92998768E-05 6.02264370E-06-2.11783788E-03-4.13300897E-04
10 11-7.70351060E-04 5.21260561E-04 4.88851647E-04 5.61265652E-04 3.15808041E-04
10 12-3.07996519E-04-1.83713056E-04 1.14829689E-04 8.72978126E-06-6.56333599E-05
11  1 6.09286371E-03-1.33006823E-02-3.07392924E-02 1.49975441E-02-1.49608523E-01
11  2-1.54798842E-01-2.42818245E-03 1.23948689E-02 2.78774423E-02-1.91275436E-02
11  3 1.56443102E-01 1.60353214E-01 4.03758010E-03-2.51837797E-03-7.29702275E-03
11  4 2.84740705E-04-2.47412012E-03 1.56797360E-03 6.12647215E-04 2.29886389E-03
11  5 5.00378833E-05-3.24347583E-03-2.32043027E-03 2.68290412E-03-3.08090267E-03
11  6-3.39095420E-03 3.18232621E-04-1.51654225E-04 3.07178507E-04-6.14679411E-05
11  7-7.69877756E-04 6.34936096E-04-2.34907689E-04-1.05365467E-03 1.40788699E-03
11  8 4.64278540E-04 3.89115125E-04 1.71442230E-03 1.15573937E-03-4.37663253E-05
11  9 5.37099386E-05-9.85375927E-05 5.07271677E-04-4.08587456E-04-3.36379046E-05
11 10-1.10583654E-04-4.04139645E-05 1.82113453E-05 3.64498588E-03-2.80184027E-04
11 11-9.27134765E-04-5.98430520E-04-1.02152612E-03-7.77033221E-04 1.37840009E-04
11 12-3.03272250E-05 1.39013676E-04-9.64967604E-05 1.39158050E-04 3.40733086E-04
12  1-1.67132342E-03 5.96352854E-03 1.01212181E-02 3.14451926E-02-1.53042653E-01
12  2-3.68708834E-01-1.10241519E-03-1.06089870E-02-1.61591818E-02-3.68684954E-02
12  3 1.60353214E-01 3.82050197E-01 7.47293274E-03-4.17678082E-03-8.10732333E-03
12  4-2.76227294E-05 8.28065867E-04-1.13807257E-03-1.01020897E-03-1.51128489E-03
12  5 2.38275909E-03 2.50373146E-03 1.53109099E-03-1.32061387E-03 1.19687123E-04
12  6 2.00534997E-03 9.16494583E-05 1.43157780E-04-1.08877368E-04 2.42253123E-05
12  7 4.52577446E-04-3.00824246E-04 1.68072193E-04 1.16497785E-04-1.04580384E-04
12  8 4.76090712E-04-2.20802798E-04-9.26765584E-04-4.02528867E-04 4.14517765E-05
12  9-4.16509359E-05 4.51086477E-05-2.50396940E-04 1.77152343E-04-8.58336927E-06
12 10 2.44011840E-06 2.63981342E-05-1.16012365E-05-1.82109982E-03-2.26840749E-06
12 11 2.90519004E-05 3.80556968E-04 3.51945961E-04 5.35585082E-04 1.84742368E-04
12 12-2.41631227E-04-1.15780358E-05 1.09546106E-04-1.70372775E-04-5.57624334E-05
13  1-1.48634866E-02-5.39388995E-03-2.98485262E-03-3.92310836E-01-9.07825408E-02
13  2-1.20154043E-01-7.99701468E-03-9.35657346E-04-6.17360941E-03 1.00012342E-02
13  3 4.03758010E-03 7.47293274E-03 4.05641164E-01 9.26161003E-02 1.24500642E-01
13  4-1.12637752E-03-4.04563528E-04-2.26871017E-04-5.81439423E-04-1.83576119E-04
13  5 5.00364223E-04 1.74546804E-03 1.09099604E-03-1.22229817E-03-1.60492458E-03
13  6 8.37974430E-04-1.04078701E-03-1.92487014E-04 6.09267007E-05 1.61486596E-04
13  7-8.37378472E-05 1.97016350E-06 5.01696609E-05 6.27041001E-04-1.09818731E-04
13  8-2.68064904E-05-1.41353626E-04 5.72407543E-04 1.07721816E-03-3.61122393E-05
13  9 1.16284728E-06-1.26998336E-05 1.87150164E-04-1.03122195E-04 1.72234531E-05
13 10-1.83739480E-04 1.37385003E-04-1.28806624E-04 1.84865811E-04-1.11754568E-03
13 11-1.94151871E-03 2.66136609E-04-1.10784921E-04 7.67855101E-05 3.74797268E-04
13 12-3.10811749E-04-1.89210597E-04 9.35160019E-05 9.57678820E-05 2.44824227E-04
14  1 3.56445018E-02 1.20905574E-02 1.13254976E-02-9.12485265E-02-9.62821293E-02
14  2-3.53533795E-02-1.99724965E-02-4.18276892E-03-8.71290090E-03-1.98075678E-02
14  3-2.51837797E-03-4.17678082E-03 9.26161003E-02 9.65673091E-02 3.53307474E-02
14  4 8.88814352E-05-2.56347442E-03 2.12429918E-03-1.07295886E-03-9.24283914E-04
14  5 1.59813135E-03 7.63648480E-04 1.74244381E-03-1.43988207E-03 2.34873127E-03
14  6-5.20796421E-03 1.76820114E-03-4.43163231E-04 6.68905171E-04-1.38803431E-04
14  7-3.02302167E-04 2.15661612E-04-1.39980067E-04-5.96868809E-04 2.90132404E-04
14  8-5.15338623E-04 4.15421265E-04-2.77517671E-04-2.42976889E-03-3.98853219E-05
14  9 8.72661402E-05-1.39545162E-05-1.64977303E-04 5.39117115E-05 5.15316072E-06
14 10 5.05571644E-04-3.38169065E-04 2.17900896E-04 1.80936892E-03 1.00071837E-03
14 11 9.81100816E-04-4.47701236E-04-4.31060992E-04-4.01485560E-04 1.06672781E-04
14 12-8.71570765E-05-4.62618141E-05-2.02512871E-04 9.59935217E-05 1.74899699E-05
15  1-1.52117125E-03-2.62412099E-03-4.37145955E-04-1.19503511E-01-3.48315189E-02
15  2-1.19780659E-01 2.69767131E-02 7.34332601E-03 1.04217617E-02-3.78682665E-02
15  3-7.29702275E-03-8.10732333E-03 1.24500642E-01 3.53307474E-02 1.19828520E-01
15  4 2.36513325E-03 3.08874616E-03-2.21654285E-03 1.44848339E-03 8.65940653E-04
15  5-1.59330652E-03 2.56509061E-04-8.16034657E-04 2.26756466E-03 9.70118896E-04
15  6 1.24211776E-03-1.27635998E-04 7.61239697E-04-5.66340052E-04-1.94743401E-04
15  7 4.07239904E-04-2.64138691E-04 1.75668953E-04 3.73157686E-04-2.13086628E-05
15  8 6.89654447E-05 4.51020628E-05-3.58042610E-04 5.08262959E-05 4.07165863E-05
15  9-2.50424740E-05 1.25197895E-05-6.56956456E-05 6.91831697E-05-4.05939392E-05
15 10-3.37073494E-05 3.86393372E-05-3.51795288E-06 4.19944232E-04-8.58393189E-04
15 11-1.41208036E-04 5.83094949E-05-1.26827764E-04 1.16849218E-04 4.73079683E-04
15 12-1.68156813E-04-1.50730750E-04-1.04127491E-04-2.18597370E-05-1.49379507E-04
16  1-5.04917273E-03-3.04858886E-02 1.90505265E-02-2.64788300E-02-2.76600819E-03
16  2 9.75201361E-03-2.61051784E-01 6.23469456E-02 1.36821457E-02-7.50249231E-04
16  3 2.84740705E-04-2.76227294E-05-1.12637752E-03 8.88814352E-05 2.36513325E-03
16  4 7.78984208E-01 8.16798909E-02-2.17497294E-02 2.81059446E-03-4.18632276E-03
16  5-1.76690338E-03-1.71242754E-02 8.32514001E-03 9.26413802E-03-1.12826914E-01
16  6 3.51548229E-05 7.93836715E-04-2.59951583E-01-1.54523585E-01-1.08175313E-01
16  7-9.47424401E-02 1.22145388E-02 8.58768612E-02-3.80281826E-03 4.07837228E-03
16  8 3.13233823E-03 7.80591595E-03 2.68713214E-02-1.60165173E-02-5.82679889E-03
16  9 1.87272302E-03-9.31137937E-04 9.16095800E-04-2.25008308E-04 5.34317280E-04
16 10 1.63702527E-03-7.39903122E-04-1.94751829E-04-2.44457282E-03-4.23165268E-03
16 11 5.13382649E-03-1.03250980E-04 7.12550881E-05 4.37903322E-04 3.91828989E-05
16 12 2.26294902E-04 8.31055432E-05-9.13860288E-04-9.36992335E-04-1.24414213E-03
17  1-1.07940891E-02-6.25889730E-03 1.52198164E-02-1.63790388E-02 9.39480039E-03
17  2-3.93951756E-03 6.67281612E-02-1.41089807E-01-1.44063501E-02 3.99410213E-05
17  3-2.47412012E-03 8.28065867E-04-4.04563528E-04-2.56347442E-03 3.08874616E-03
17  4 8.16798909E-02 6.86016077E-01 4.78843666E-02 3.79468110E-02-6.69818212E-03
17  5-1.36308117E-03-1.87717571E-03 1.92527724E-03-1.40179176E-03-1.28158800E-02
17  6-2.45268376E-01 8.93885316E-02-1.54829521E-01-1.98125911E-01-9.13389258E-02
17  7 1.28297921E-02-7.89292631E-02-5.58631940E-02 3.27510419E-03 1.66871362E-03
17  8 3.83372908E-03-1.46782099E-03-9.64682387E-03 7.34107275E-03 8.59239994E-04
17  9 5.56371011E-04 3.81843920E-04-4.50259525E-04 3.38529360E-04-1.32903366E-04
17 10-1.52438244E-03 9.24846221E-04-4.35645481E-04-2.36460912E-03-1.08405900E-02
17 11-2.14725260E-03-8.41871253E-04-4.48233137E-04 7.85942382E-04 8.49781989E-04
17 12 1.64669015E-03 1.49215422E-03-4.59505546E-04-1.27515347E-04 7.84405691E-04
18  1 1.21672122E-02 2.15193055E-02-1.27963785E-02 2.17723225E-02-9.40408196E-03
18  2-7.93186528E-03 1.09787731E-02-1.11845609E-02-1.19415668E-01 1.42912880E-03
18  3 1.56797360E-03-1.13807257E-03-2.26871017E-04 2.12429918E-03-2.21654285E-03
18  4-2.17497294E-02 4.78843666E-02 8.43678265E-01 1.51399458E-02-3.44708251E-03
18  5 2.95361373E-04-3.18719875E-02 1.53993821E-02 1.08594917E-02 1.24194254E-02
18  6 8.09657294E-02-1.53042436E-01-1.11761718E-01-9.41563627E-02-1.42082244E-01
18  7 8.75904289E-02-5.51751161E-02-4.31577465E-01 5.58591838E-03 6.28986062E-03
18  8 7.18427700E-03 1.45108444E-03 2.98857394E-03 8.01657967E-04 2.89621542E-04
18  9-1.36651362E-04 1.18850686E-03 7.20841716E-04-4.65460632E-04 3.76467608E-04
18 10-1.47932684E-04-3.71647740E-04 5.62267452E-04-2.91969604E-03-3.26279207E-03
18 11 6.48261131E-03 1.81882381E-04 1.22845784E-04 6.15907195E-04-6.97937655E-05
18 12-2.61444728E-04-1.84200158E-04-9.78881487E-04-9.97475171E-04-1.65980023E-03
19  1-2.49925174E-03-2.40094394E-04 2.08031376E-03-4.48689740E-04-1.96951841E-02
19  2-8.26018415E-03-7.39467669E-02-2.36389140E-02-1.28656028E-02 1.50660879E-03
19  3 6.12647215E-04-1.01020897E-03-5.81439423E-04-1.07295886E-03 1.44848339E-03
19  4 2.81059446E-03 3.79468110E-02 1.51399458E-02 7.57997159E-02 2.49148932E-02
19  5 8.94182725E-03 8.66845488E-04-2.19620164E-02-4.99618857E-03-5.51876689E-03
19  6 1.02565437E-03 1.11027130E-03 3.34138314E-03-7.67988404E-05 1.11351525E-04
19  7-2.95994251E-03 1.80651948E-03-4.53847563E-04 7.30219585E-04-5.10109621E-04
19  8-1.65521830E-05 5.90686497E-04 1.12759149E-03-7.33041610E-04-3.79426716E-04
19  9 1.26947338E-04-1.10350903E-04 6.81933550E-05-2.20831195E-05 2.97097598E-05
19 10 1.11162948E-04-9.45262379E-05-1.91058408E-05 2.98015975E-04-1.61018212E-04
19 11-5.71216356E-04-4.27503864E-05-1.15428677E-04-1.48016943E-04 1.13460903E-04
19 12-4.53645164E-05 9.14465544E-05 1.40037651E-04 7.35115738E-05 2.30960350E-04
20  1-6.90183223E-04-9.61438338E-04 1.24259077E-03 2.54356206E-04-1.36443708E-02
20  2-8.85698031E-03-2.31908918E-02-4.14582419E-01-1.26060558E-01 1.10691710E-03
20  3 2.29886389E-03-1.51128489E-03-1.83576119E-04-9.24283914E-04 8.65940653E-04
20  4-4.18632276E-03-6.69818212E-03-3.44708251E-03 2.49148932E-02 4.27408761E-01
20  5 1.30704476E-01 2.63062050E-03 6.62706141E-03 6.40103368E-03 1.33526378E-04
20  6-6.14663728E-04 2.23933426E-04-1.64322670E-03 1.80498405E-03 2.81571222E-04
20  7 4.57663713E-04-4.49402846E-04 2.12219415E-04 3.01481186E-04-3.08148691E-04
20  8-3.32388208E-05-4.46311173E-05-7.86206341E-05 2.05346066E-05 7.47689890E-05
20  9 1.25015171E-05-6.19490951E-06 3.66668038E-05-3.90628072E-05 1.42087412E-06
20 10 1.06285524E-05-1.38714312E-05 2.10995177E-05 3.26160421E-05 3.70700612E-04
20 11-3.95259877E-05 2.20652049E-07-5.86590006E-05-3.49637816E-05-3.36900847E-05
20 12-1.31541683E-04-4.82865738E-05 1.82441172E-05-1.83628537E-05 6.33014448E-05
21  1 2.24940893E-03 2.66513047E-03-3.28012098E-03 3.53141185E-03 3.01161770E-02
21  2 1.06287282E-02-1.27768904E-02-1.25895054E-01-1.23453678E-01-7.52047942E-04
21  3 5.00378833E-05 2.38275909E-03 5.00364223E-04 1.59813135E-03-1.59330652E-03
21  4-1.76690338E-03-1.36308117E-03 2.95361373E-04 8.94182725E-03 1.30704476E-01
21  5 1.21740919E-01 8.00986686E-04-3.95151601E-02-7.11674971E-03 4.61611296E-04
21  6 1.23618442E-03-8.78334222E-04-3.79540957E-04 6.00105297E-04 1.00331052E-03
21  7 5.40472787E-04-7.15512787E-05 6.42449450E-05-8.81645393E-04 6.62585104E-04
21  8 3.37373858E-05-5.31847922E-05-1.40788563E-04 1.20413883E-04 1.40956206E-05
21  9-1.28978588E-05 1.70063759E-05-3.80213937E-05 3.23252405E-05 4.68949502E-06
21 10-4.64263617E-05 3.14728781E-05-1.29216050E-05-5.93920957E-04-3.46391590E-04
21 11-3.10910644E-04 1.28396950E-04 7.80855675E-05 1.99465229E-04 4.36249181E-05
21 12-3.52358879E-04 9.78973223E-05 7.64043819E-05-7.74654248E-05 5.75007451E-05
22  1-1.57150285E-03 2.70728376E-04 1.93828776E-03 1.09313363E-02-7.52657252E-04
22  2 2.49672159E-02-1.58464298E-01 2.60458479E-03-1.66027095E-01-1.31799812E-03
22  3-3.24347583E-03 2.50373146E-03 1.74546804E-03 7.63648480E-04 2.56509061E-04
22  4-1.71242754E-02-1.87717571E-03-3.18719875E-02 8.66845488E-04 2.63062050E-03
22  5 8.00986686E-04 1.67505230E-01-1.93563786E-03 1.68632742E-01-3.14881560E-03
22  6-5.01160575E-04 3.82283563E-04-3.79598457E-03 3.44993203E-03 2.42852790E-04
22  7 3.13920577E-03-1.25242826E-03-9.73961833E-04 4.90356271E-04-5.76039022E-04
22  8-2.05919668E-04 3.88000885E-04 9.26146239E-04-2.74574736E-04-2.22406649E-04
22  9 1.21863287E-04-3.23922629E-05 1.23310123E-04-7.50327669E-05 5.15769953E-05
22 10 3.99937784E-05-5.81817761E-05-1.17031973E-05 3.15702995E-04-1.08329698E-04
22 11-5.26432519E-04-7.36127909E-05-1.16032508E-04-1.16843409E-04 9.32245689E-05
22 12-3.18872956E-04 7.12466320E-05 8.01512185E-05 4.76199435E-05 1.93420687E-04
23  1-1.16883905E-03-1.21688996E-03 9.71983210E-04 1.17359380E-02 2.10813349E-03
23  2 2.28286612E-02 3.11373819E-03-7.89646342E-02 3.41395386E-03-8.21451020E-04
23  3-2.32043027E-03 1.53109099E-03 1.09099604E-03 1.74244381E-03-8.16034657E-04
23  4 8.32514001E-03 1.92527724E-03 1.53993821E-02-2.19620164E-02 6.62706141E-03
23  5-3.95151601E-02-1.93563786E-03 7.24066177E-02-4.15038224E-03 1.21309920E-03
23  6-1.00084608E-03-1.71230062E-04 1.19443258E-03-1.08053386E-03 1.93749564E-05
23  7-1.01265557E-03 1.21035416E-03 4.27156215E-04 2.52442545E-04-3.98087062E-04
23  8-1.41515902E-04-1.28819355E-04-3.31521861E-04 6.44904828E-05 9.80276378E-05
23  9-4.61400267E-05 1.06455175E-05-2.98157611E-05 2.55937601E-06-2.68023973E-05
23 10 1.55390672E-05 3.18307688E-06 1.81454569E-05 4.04888779E-04 4.71979466E-05
23 11 6.12011861E-04-1.50083767E-04-1.79688449E-05-1.55764460E-04-1.35262052E-04
23 12-7.19221383E-04-9.05991029E-05-9.97012941E-05 2.34841047E-05-2.29433386E-04
24  1 6.74945253E-04 1.29133387E-06-9.34512782E-04-1.04340746E-02-2.63761846E-03
24  2-1.74161662E-02-1.66366723E-01 2.36162376E-03-3.77982563E-01 9.55295184E-04
24  3 2.68290412E-03-1.32061387E-03-1.22229817E-03-1.43988207E-03 2.26756466E-03
24  4 9.26413802E-03-1.40179176E-03 1.08594917E-02-4.99618857E-03 6.40103368E-03
24  5-7.11674971E-03 1.68632742E-01-4.15038224E-03 3.89949678E-01 1.66761682E-03
24  6 3.20206608E-04-4.30453517E-04 1.76419302E-03-1.00528017E-03 1.12341268E-04
24  7 7.39001378E-04-3.19959056E-05 1.54946231E-03-2.14952537E-04 3.29560145E-04
24  8 1.12058344E-04-2.37128286E-04-4.35009525E-04 1.93683411E-04 1.01481524E-04
24  9-7.35663170E-05 3.19529785E-05-2.82649456E-05 2.33506344E-05-1.77615802E-05
24 10-3.84357658E-05 4.35799532E-05 4.64674513E-06-4.41369019E-04-2.83155943E-04
24 11-6.70389097E-05 8.62926058E-05 5.57681045E-05 1.11993480E-04 3.70903704E-05
24 12-6.95158073E-04 7.87713374E-05 5.65851018E-05-6.53414161E-05 1.42627822E-05
25  1-5.22975655E-01-1.18194173E-02 2.56225330E-01-3.85131222E-02 1.01033629E-02
25  2 4.48965032E-04-2.38605297E-03 3.23700278E-02-1.46344404E-02 1.29558124E-03
25  3-3.08090267E-03 1.19687123E-04-1.60492458E-03 2.34873127E-03 9.70118896E-04
25  4-1.12826914E-01-1.28158800E-02 1.24194254E-02-5.51876689E-03 1.33526378E-04
25  5 4.61611296E-04-3.14881560E-03 1.21309920E-03 1.66761682E-03 9.99164487E-01
25  6-7.65638830E-02-1.96756107E-01 1.29215873E-03-2.63322783E-02 1.76710838E-02
25  7-7.77512626E-04-1.10742362E-02 4.75969366E-03-2.68509995E-03 2.64965610E-04
25  8-7.10813660E-03-2.61307801E-01 9.75029874E-02-2.76228013E-02 1.04372221E-02
25  9-6.81192516E-03 1.47454171E-03-2.16777672E-02 1.41480518E-02-2.66998213E-03
25 10-2.09203697E-02 1.13050686E-02-1.07248312E-02-1.36176142E-02-2.56704286E-02
25 11-4.70837018E-02-1.67969310E-03 1.53116794E-04 1.69712120E-03-2.10218020E-03
25 12-1.03908159E-03 3.16198883E-03-4.47124845E-04 5.66540840E-03 5.52272748E-03
26  1-6.33975923E-02-1.20434797E-01 7.94651570E-02 2.95141771E-02 4.98614490E-03
26  2-9.71572965E-03 1.58182502E-02-2.11153064E-02 5.32702137E-03 2.46893808E-03
26  3-3.39095420E-03 2.00534997E-03 8.37974430E-04-5.20796421E-03 1.24211776E-03
26  4 3.51548229E-05-2.45268376E-01 8.09657294E-02 1.02565437E-03-6.14663728E-04
26  5 1.23618442E-03-5.01160575E-04-1.00084608E-03 3.20206608E-04-7.65638830E-02
26  6 5.90406067E-01-2.19585557E-01 1.03867003E-03-1.90866456E-02 1.58449227E-02
26  7-2.23711903E-03 7.93371448E-03-3.42462940E-03-2.90692340E-02 9.49471359E-04
26  8 6.43390987E-03 9.05372498E-02-1.72057146E-01 3.66000284E-02 3.83722629E-02
26  9-1.44125120E-02 5.92870241E-03-1.81756706E-02 1.39729583E-02-2.46910441E-03
26 10 1.71405108E-03-1.47376253E-03 2.06593055E-03 5.49670723E-03-6.47517539E-03
26 11 8.98504067E-03-2.51115173E-03-8.09587936E-03-9.26688914E-03 3.92435689E-03
26 12 1.88149319E-03 1.86979121E-03 1.67225755E-03-1.49537504E-03-3.82819601E-03
27  1 1.92336049E-01 5.17192448E-02-1.90422700E-01 3.61966424E-03-3.02180013E-03
27  2 6.54696460E-03-6.22230094E-03 3.03751783E-03 1.88067479E-03 7.74194045E-05
27  3 3.18232621E-04 9.16494583E-05-1.04078701E-03 1.76820114E-03-1.27635998E-04
27  4 7.93836715E-04 8.93885316E-02-1.53042436E-01 1.11027130E-03 2.23933426E-04
27  5-8.78334222E-04 3.82283563E-04-1.71230062E-04-4.30453517E-04-1.96756107E-01
27  6-2.19585557E-01 4.41285786E-01 1.73716767E-03-1.59718272E-02 1.08893074E-02
27  7-3.45815154E-04 4.02266890E-02-1.18465362E-02 2.60328830E-02-1.68877052E-03
27  8 2.62351303E-03-2.46159210E-02 3.14408042E-02-1.11416555E-01-1.78053455E-02
27  9 6.49170156E-03-3.78588469E-03-2.13472026E-02 1.68132613E-02-2.22958822E-03
27 10 2.96138956E-02-1.98648318E-02 1.49844644E-02 1.06020695E-02 3.94689358E-02
27 11 1.52333486E-02-4.19047232E-03-1.30608064E-02-1.39160231E-02 2.16055264E-04
27 12-7.90494635E-03-7.21691643E-03 5.80240149E-03 3.73236248E-04 1.77737836E-03
28  1 9.49539436E-05 1.30183479E-03-7.88677875E-06-2.25850508E-03 8.34951377E-04
28  2-7.25720159E-04-1.91014517E-02-1.88919545E-02-1.58749512E-02 3.28090059E-05
28  3-1.51654225E-04 1.43157780E-04-1.92487014E-04-4.43163231E-04 7.61239697E-04
28  4-2.59951583E-01-1.54829521E-01-1.11761718E-01 3.34138314E-03-1.64322670E-03
28  5-3.79540957E-04-3.79598457E-03 1.19443258E-03 1.76419302E-03 1.29215873E-03
28  6 1.03867003E-03 1.73716767E-03 2.68736940E-01 1.61548080E-01 1.16568264E-01
28  7 1.02286451E-02 9.02956623E-03 8.33162099E-03 2.54866256E-04-4.50476556E-04
28  8-1.18368890E-04 4.34661267E-04 6.40106772E-04-7.56690286E-05-1.01712152E-04
28  9 5.51397506E-05 4.71630430E-05 1.96133954E-04 1.29366227E-04 1.05479245E-05
28 10 5.99425415E-06 6.74101071E-06 2.96011754E-05 4.34864757E-04 5.03018996E-04
28 11-6.82483732E-04 8.19586411E-05 3.59878226E-05-1.07144944E-04 5.39278346E-05
28 12-4.14972628E-05 5.14243098E-05 2.12426223E-04 1.33693830E-04 2.89090323E-04
29  1 1.04205617E-03-3.75098292E-03-6.29065841E-04 1.44153504E-03-2.12397486E-03
29  2 6.64359369E-04 1.76533441E-02 1.24213284E-02 1.01090822E-02-3.83658178E-05
29  3 3.07178507E-04-1.08877368E-04 6.09267007E-05 6.68905171E-04-5.66340052E-04
29  4-1.54523585E-01-1.98125911E-01-9.41563627E-02-7.67988404E-05 1.80498405E-03
29  5 6.00105297E-04 3.44993203E-03-1.08053386E-03-1.00528017E-03-2.63322783E-02
29  6-1.90866456E-02-1.59718272E-02 1.61548080E-01 2.06709182E-01 9.61800512E-02
29  7-3.20893237E-03-4.40332477E-04 1.82455679E-03 4.29897715E-05 1.50697121E-03
29  8 1.36904880E-03 9.80676327E-05 2.11436690E-03-6.89904297E-04-2.05944807E-04
29  9 3.32861397E-04 2.65573960E-05 2.43219731E-04-1.98173864E-04 1.82974075E-04
29 10 5.49355334E-05-8.03709597E-05 4.39378323E-05-9.11049210E-04-6.85500650E-04
29 11 2.75276190E-03 1.40503727E-04 2.03653983E-04 3.17952291E-04-5.54729921E-05