!File created by the GAMESS Input Deck Generator Plugin for Avogadro
 $BASIS GBASIS=STO NGAUSS=3 $END
 $CONTRL SCFTYP=RHF RUNTYP=SADPOINT $END
 $STATPT hssend=.t. OPTTOL=0.0005 NSTEP=50 $END
 $STATPT HESS=calc ihrep=5 $END
 $FORCE nvib=2 $END
 $ZMAT DLC=.t. auto=.t. nonvdw(1)=1,17,9,18,1,9,9,13,17,18 $END
!$ZMAT IFZMAT(1)=1,1,17,1,9,18 fvalue(1)=2.00,2.00 $END


 $DATA 
Title
C1
C     6.0    -5.81869888    -0.31928137     0.80964559
C     6.0    -6.72618532     0.89708871     0.63393766
C     6.0    -5.96187544     1.80291522    -0.37303302
H     1.0    -6.84693861     1.38945234     1.59891117
H     1.0    -7.71606255     0.62470365     0.27552110
C     6.0    -4.54726887     1.17863536    -0.53680682
H     1.0    -5.89574718     2.82393980    -0.00661820
H     1.0    -6.47747135     1.82738757    -1.32835960
C     6.0    -4.60925674    -0.15100846     0.22694132
H     1.0    -3.77597857     1.80377591    -0.08825268
H     1.0    -4.28125715     1.02492332    -1.58049047
H     1.0    -6.02459955    -1.06393564     1.56717694
C     6.0    -3.34030485    -0.93971741     0.52722895
H     1.0    -3.57823682    -1.90555203     0.96123391
H     1.0    -2.73906898    -0.37430698     1.23738790
H     1.0    -2.75359559    -1.08943641    -0.37406680
B     5.0    -5.88795805    -1.38474441    -0.90783155
H     1.0    -4.89585447    -1.61691046    -1.45861101
H     1.0    -6.61322784    -0.70465505    -1.49429786
H     1.0    -6.33404016    -2.30026746    -0.35887620
 $END
