!File created by the GAMESS Input Deck Generator Plugin for Avogadro
 $BASIS GBASIS=STO NGAUSS=3 $END
 $CONTRL SCFTYP=RHF RUNTYP=OPTIMIZE NZVAR=1 mult=1  ICHARG=0 $END
 $STATPT hssend=.t. OPTTOL=0.0005 NSTEP=50 $END
 $STATPT HESS=calc ihrep=5 $END
 $FORCE nvib=2 $END
 $ZMAT DLC=.t. auto=.t. nonvdw(1)=1,6,3,4 $END
 $ZMAT IFZMAT(1)=1,1,6,1,3,4 fvalue(1)=2.00,2.00 $END


 $DATA 
Title
C1
C     6.0     3.51228     0.15379    -2.36549
C     6.0     2.62931    -0.71416    -1.80910
C     6.0     1.59698    -0.21728    -0.83319
C     6.0     2.60840     0.81456     0.54727
C     6.0     4.04450     0.51867     0.21597
C     6.0     4.52692     1.09559    -0.91843
C     6.0     4.19694     2.53218    -1.07878
C     6.0     3.11741     3.09962    -0.52138
C     6.0     2.21093     2.26001     0.30357
O     8.0     1.16090     2.73856     0.72787
H     1.0     4.30521    -0.25460    -2.99707
H     1.0     3.10241     1.12749    -2.65564
H     1.0     2.84901    -1.77875    -1.80455
H     1.0     0.85434     0.46918    -1.24624
H     1.0     1.14678    -1.02810    -0.25390
H     1.0     2.26897     0.44071     1.51571
H     1.0     4.48930    -0.39262     0.60349
H     1.0     5.52332     0.80093    -1.26689
H     1.0     4.88318     3.12453    -1.67830
H     1.0     2.86173     4.14334    -0.64267
 $END
