!File created by the GAMESS Input Deck Generator Plugin for Avogadro
 $BASIS GBASIS=STO NGAUSS=3 $END
 $CONTRL SCFTYP=RHF RUNTYP=SADPOINT $END
 $STATPT hssend=.t. OPTTOL=0.0005 NSTEP=50 $END
 $STATPT HESS=calc ihrep=5 $END
 $FORCE nvib=2 $END
 $ZMAT DLC=.t. auto=.t. nonvdw(1)=1,6,3,4,4,5,5,6,1,2,2,3 $END
!$ZMAT IFZMAT(1)=1,1,6,1,3,4 fvalue(1)=2.00,2.00 $END


 $DATA
Title
C1
C     6.0     3.62408781     0.13518895    -2.34773684
C     6.0     2.61602473    -0.65698957    -1.77053130
C     6.0     1.66424966    -0.04395470    -0.93879789
C     6.0     2.62838364     0.77534306     0.52148342
C     6.0     3.99137545     0.52631205     0.28629935
C     6.0     4.51886845     1.05836427    -0.90564889
C     6.0     4.10243750     2.48378372    -1.19331408
C     6.0     3.04361439     3.02662730    -0.62954324
C     6.0     2.17861056     2.23474097     0.32506454
O     8.0     1.20315921     2.70581269     0.89261723
H     1.0     4.41964674    -0.38476998    -2.87203956
H     1.0     3.30743194     1.02890873    -2.87261295
H     1.0     2.86468434    -1.68966651    -1.55442691
H     1.0     1.19452703     0.85673487    -1.31727040
H     1.0     0.95588917    -0.68904346    -0.42951232
H     1.0     2.18190145     0.31646761     1.39940250
H     1.0     4.44738865    -0.35799244     0.71433753
H     1.0     5.56357622     0.85571390    -1.12326372
H     1.0     4.71914625     3.04346633    -1.88817275
H     1.0     2.75804281     4.05498552    -0.80766451
 $END