!File created by the GAMESS Input Deck Generator Plugin for Avogadro
 $BASIS GBASIS=STO NGAUSS=3 $END
 $CONTRL SCFTYP=RHF RUNTYP=IRC $END
 $STATPT HESS=READ ihrep=5 $END
 $irc npoint=100 saddle=.t. tsengy=.t. forwrd=.t. optto=0.0005 stride=0.1 $END


 $DATA 
Title
C1
C     6.0     3.62408781     0.13518895    -2.34773684
C     6.0     2.61602473    -0.65698957    -1.77053130
C     6.0     1.66424966    -0.04395470    -0.93879789
C     6.0     2.62838364     0.77534306     0.52148342
C     6.0     3.99137545     0.52631205     0.28629935
C     6.0     4.51886845     1.05836427    -0.90564889
C     6.0     4.10243750     2.48378372    -1.19331408
C     6.0     3.04361439     3.02662730    -0.62954324
C     6.0     2.17861056     2.23474097     0.32506454
O     8.0     1.20315921     2.70581269     0.89261723
H     1.0     4.41964674    -0.38476998    -2.87203956
H     1.0     3.30743194     1.02890873    -2.87261295
H     1.0     2.86468434    -1.68966651    -1.55442691
H     1.0     1.19452703     0.85673487    -1.31727040
H     1.0     0.95588917    -0.68904346    -0.42951232
H     1.0     2.18190145     0.31646761     1.39940250
H     1.0     4.44738865    -0.35799244     0.71433753
H     1.0     5.56357622     0.85571390    -1.12326372
H     1.0     4.71914625     3.04346633    -1.88817275
H     1.0     2.75804281     4.05498552    -0.80766451
 $END

 $HESS
ENERGY IS     -416.0940647145 E(NUC) IS      511.4290920416
 1  1 6.38678472E-01-2.16820487E-01-3.32863108E-01-1.89980290E-01-1.17129931E-01
 1  2 8.10144537E-02-3.19995105E-02 5.08175083E-02 1.26426121E-01-1.05956274E-01
 1  3-2.54819094E-02-4.87647387E-02 8.38119959E-02 9.63394119E-03-9.72193668E-02
 1  4-1.35761554E-02 5.12142410E-02 1.67580561E-01 1.24303949E-03-1.84437450E-02
 1  5-8.63560932E-03-7.77082548E-03 2.07854137E-03 6.35661132E-04 5.05525800E-03
 1  6 3.30883966E-03 8.21096596E-03-2.14585609E-03 9.08926171E-04-1.58836860E-03
 1  7-2.74873068E-01 1.52144754E-01 1.59531208E-01-9.92181754E-02 1.15315226E-01
 1  8-2.42400582E-02 1.02636540E-02 1.12172260E-02-6.31769193E-03-6.72698303E-03
 1  9-8.64117709E-03-1.11448178E-02-2.93699116E-03 2.74370545E-03 2.14993406E-03
 1 10 3.69902316E-03 4.08489974E-03 3.15583011E-03 1.14846442E-03-1.17795048E-03
 1 11 1.86820505E-03-1.06444166E-02-1.65690983E-02-2.16833611E-02 5.60770527E-04
 1 12 2.74104187E-04 3.85338959E-04 1.36383656E-03 5.21639487E-04 1.50025987E-03
 2  1-2.16820487E-01 7.18559348E-01-2.46021254E-01-1.61666297E-02-2.47639355E-01
 2  2 4.69509197E-02 6.03911196E-03 8.61511599E-02 9.00082565E-02-9.55709811E-02
 2  3-2.25939023E-02-4.88359995E-02 7.87662697E-02 1.13791998E-02-8.56207580E-02
 2  4 3.08099769E-02 2.27737335E-03 1.53374930E-01-7.30789008E-03-3.14018456E-02
 2  5-2.43502638E-02-6.55210040E-03 6.93635596E-04-1.08153277E-04 3.93294766E-03
 2  6 9.61529434E-04 7.73106968E-03-1.53087933E-03 1.44258686E-03-1.41913531E-03
 2  7 1.46067556E-01-1.69935693E-01-7.67175287E-02 1.17670170E-01-3.27529403E-01
 2  8 1.86120111E-01-3.48036977E-02-1.21742110E-02 1.55747764E-02-7.68114645E-03
 2  9-5.22927449E-03-7.95589925E-03 3.24207442E-04-3.44694636E-03-7.21175111E-03
 2 10 2.53654859E-03 3.18875043E-03 2.56700954E-03 1.65406898E-04-1.37238510E-03
 2 11 5.23200385E-04-2.25580575E-03-5.28657484E-03-7.69954651E-03 7.58422527E-04
 2 12 5.18048113E-04 1.17924235E-03 1.61552995E-03 1.43701440E-03 1.91221244E-03
 3  1-3.32863108E-01-2.46021254E-01 5.29477222E-01 1.90852341E-01 1.34155922E-01
 3  2-1.97825434E-01 1.79881291E-02 4.09162969E-02 2.94595051E-02-4.26120388E-02
 3  3-7.85330545E-03-2.20826599E-02 4.73066458E-02-4.48397562E-04-6.90490202E-02
 3  4 1.23256530E-02 2.38625897E-02 5.11119056E-02 1.15044518E-03-2.24497171E-02
 3  5-9.96162970E-03-7.19716659E-03 1.27785235E-03 1.07680482E-03 2.58199884E-03
 3  6 1.87722688E-03 3.09140469E-04-2.22848701E-03 8.04586895E-04 2.91261791E-04
 3  7 1.42723529E-01-8.20840126E-02-1.56655420E-01-4.04360510E-02 1.61609241E-01
 3  8-1.49319703E-01 1.25262474E-02 2.50442692E-03 1.02279764E-03-5.10417524E-03
 3  9-6.01937064E-03-6.36731089E-03 5.22725676E-03-1.76172755E-03 1.90903683E-04
 3 10-1.82864041E-04 1.23332463E-03 1.96634783E-03-1.22416490E-03 6.65074044E-04
 3 11-1.08239683E-04-1.50991219E-03-3.81448196E-03-5.38123050E-03-5.62847193E-05
 3 12 1.19472921E-03 4.05557043E-04 7.30167526E-04 3.51315157E-04 1.44120180E-03
 4  1-1.89980290E-01-1.61666297E-02 1.90852341E-01 6.21929451E-01-7.97303214E-02
 4  2-2.35961051E-01-3.03161890E-01 4.54126196E-02 6.13840048E-02 1.13219712E-01
 4  3 3.71436826E-02 6.91408574E-02-1.05213556E-01-3.16644740E-02 5.74503653E-02
 4  4-3.97474074E-02-4.98159522E-02-1.59704531E-01 2.06554700E-03 1.24005960E-02
 4  5 6.75106682E-03 5.22574692E-03-6.28166628E-04 9.77766609E-04-2.79409325E-03
 4  6-5.26792998E-03-9.03863199E-03 1.40362856E-03-1.28604248E-03 1.74958639E-03
 4  7-1.67397940E-02-2.50934707E-02-4.89421025E-04 6.28330952E-03-2.50167246E-03
 4  8-2.58517058E-02-9.25139057E-02 8.34374272E-02-6.14060745E-03 6.00873826E-03
 4  9 1.45055174E-02 2.56016431E-02-5.51688395E-03 1.99414482E-02 2.13960971E-02
 4 10-3.36046428E-03-4.42306548E-03-4.48314801E-03 1.60195043E-03-3.13458433E-04
 4 11 1.66171124E-03 3.14284924E-03 4.88179400E-03 6.37385699E-03-6.17961028E-04
 4 12-1.43641108E-04-4.30652386E-04-1.23166795E-03-6.87763006E-04-1.24201676E-03
 5  1-1.17129931E-01-2.47639355E-01 1.34155922E-01-7.97303214E-02 9.05181165E-01
 5  2-9.42099305E-02 1.42688344E-01-2.20060009E-01-7.17486844E-02-1.03294374E-02
 5  3-5.99120946E-03-9.20040829E-03-1.12783682E-02-3.92425741E-03 2.70018860E-03
 5  4-1.07790651E-02-1.36752329E-02-4.00414234E-02 7.00578249E-04 1.65437083E-03
 5  5 2.30532420E-03 3.73219244E-04-1.76243545E-05-2.27481911E-04 1.12562238E-03
 5  6 3.94794856E-04 7.36779112E-04-1.45206689E-04-4.97003953E-04-4.03767923E-04
 5  7 1.93418707E-02 1.79410833E-02-1.15622573E-02-3.50776279E-02-1.73222402E-02
 5  8 3.44224570E-03 9.69953257E-02-4.24693374E-01 9.17144185E-02 2.02850154E-02
 5  9-1.06405953E-02-3.10169363E-02-2.00561714E-02 1.82217386E-02 1.90469613E-02
 5 10 1.34150402E-03 8.40183086E-04 4.63386399E-04 1.40387827E-03-1.14870541E-03
 5 11 1.57458052E-03 5.37059474E-04 1.59358776E-03 2.59603871E-03-2.78295068E-05
 5 12-7.82322018E-05-1.18669520E-04-2.38615921E-04-1.38845108E-04-2.07337382E-04
 6  1 8.10144537E-02 4.69509197E-02-1.97825434E-01-2.35961051E-01-9.42099305E-02
 6  2 4.44781835E-01 1.74281513E-01 1.92094224E-03-1.11287961E-01-1.01775055E-01
 6  3-4.49097689E-02-7.63472633E-02 5.70702526E-02-1.86607152E-02-7.37024587E-02
 6  4 1.14079127E-02 1.82075741E-02 8.53354361E-02-2.09816120E-03-5.39263506E-03
 6  5-3.83768634E-03-2.48477086E-03-4.35883986E-04-4.34422780E-04 1.32599500E-03
 6  6 6.82962998E-03 6.86103877E-03 1.88147476E-04-4.74646645E-04-1.56769238E-03
 6  7 1.59888742E-02 1.72612228E-02 4.63901762E-04 2.06886871E-02 1.60269351E-02
 6  8 8.69400289E-03-3.03294557E-03 7.35130348E-02-7.53277638E-02-2.22725233E-02
 6  9-4.71202853E-04 2.42205520E-03 1.77258085E-03-1.45294643E-02-1.13742637E-02
 6 10 2.82053145E-03 2.77246190E-03 3.11788866E-03 2.37959558E-03-1.11418272E-04
 6 11 3.46755892E-03-2.39610293E-03-4.19531541E-03-4.45195759E-03 5.14106620E-04
 6 12-4.32123110E-04 4.70042000E-04 5.64993048E-04 3.39119876E-04 5.43929799E-04
 7  1-3.19995105E-02 6.03911196E-03 1.79881291E-02-3.03161890E-01 1.42688344E-01
 7  2 1.74281513E-01 7.82923657E-01-1.24340186E-01-2.83417765E-01-2.56174420E-02
 7  3 2.53178584E-03 2.73249393E-03-2.48137834E-02-8.43323642E-03-3.59563737E-04
 7  4-2.65205689E-03 4.34086559E-03 5.97258272E-03 6.24804158E-04-1.06439099E-03
 7  5-2.64242369E-03-1.12533971E-03 2.22654329E-04 3.92252719E-04 2.58059600E-03
 7  6-9.88715615E-03-1.64745793E-03-2.76194446E-03 3.66039843E-03 1.01570531E-03
 7  7-1.53690503E-03-2.57006327E-03 5.59329918E-03-5.44380699E-04-2.29671166E-03
 7  8-2.14427241E-03-2.76484083E-03-1.00635851E-03 1.23080300E-02-1.49121704E-01
 7  9 1.35650791E-01-5.07618803E-02-2.41740464E-01-1.48890507E-01 1.21427107E-01
 7 10 1.07303435E-03 1.65647491E-03 2.64586184E-03-7.65048301E-04 1.18680445E-03
 7 11-1.57287052E-03 9.06869107E-04-9.00428245E-05-1.67738770E-03-7.38189218E-05
 7 12 1.04512152E-04-1.04299246E-04 5.70644765E-04 4.97248078E-04-2.85411714E-05
 8  1 5.08175083E-02 8.61511599E-02 4.09162969E-02 4.54126196E-02-2.20060009E-01
 8  2 1.92094224E-03-1.24340186E-01 7.55676647E-01-2.73707183E-01 1.04600437E-01
 8  3-3.93760465E-03 6.93213638E-02-8.94082493E-02-1.03765924E-02 4.30885508E-02
 8  4-1.39163996E-02-1.60096930E-02-9.15460031E-02 1.95773308E-03 6.79710119E-03
 8  5 4.97112596E-03 4.10093704E-03 1.93094672E-03 2.70375504E-03-5.35673055E-03
 8  6-2.49669936E-02-2.75837532E-02-1.75853773E-03 5.30730232E-04 4.43068482E-03
 8  7-6.02116847E-03-4.62329317E-03-5.39280161E-04-3.85454590E-03-4.69839831E-03
 8  8-9.20973068E-03 2.70682711E-02-8.19441253E-03-2.98658766E-02 1.55299260E-01
 8  9-3.37214005E-01 1.42718314E-01-1.43433965E-01-2.20740251E-01 1.20795103E-01
 8 10-1.40537140E-03-1.06495443E-03 4.70063756E-04 1.02329084E-04-1.67514584E-03
 8 11-6.94062102E-04 1.65904133E-03 3.05547743E-03 3.68058355E-03-6.33946945E-04
 8 12-1.08150172E-04-5.76258798E-04-8.86328462E-04-4.72342202E-04-1.29683189E-03
 9  1 1.26426121E-01 9.00082565E-02 2.94595051E-02 6.13840048E-02-7.17486844E-02
 9  2-1.11287961E-01-2.83417765E-01-2.73707183E-01 3.52901414E-01 1.74536863E-01
 9  3 6.76175504E-02 6.13582208E-02-1.48068374E-01-2.03050800E-02 6.53138534E-02
 9  4-1.27010660E-02-2.06384408E-02-1.42942350E-01 5.87894674E-03 5.04103454E-03
 9  5 7.32421410E-03 2.91869058E-03 1.96925611E-04 1.92772669E-03-1.63116320E-03
 9  6-2.43099256E-02-1.90562578E-02-3.34882445E-03 1.28728884E-03 4.01795033E-03
 9  7 1.84982100E-03 1.99773305E-03 4.62166971E-04-8.91468235E-03-1.18752067E-02
 9  8-1.41229609E-02-1.00471835E-02 7.95750306E-03 7.78146458E-03-3.20504098E-02
 9  9 1.34659551E-01-9.35891711E-02 1.39361759E-01 1.25442975E-01-1.37755998E-01
 9 10-1.43047570E-02-1.49807011E-02-1.66855316E-02 1.24743501E-03-1.70195337E-03
 9 11 1.33492118E-04 2.54422886E-03 5.77218569E-03 6.70752995E-03-8.64399504E-04
 9 12-2.11860491E-04-8.41728911E-04-7.95507912E-04-5.01213442E-04-1.10938078E-03
10  1-1.05956274E-01-9.55709811E-02-4.26120388E-02 1.13219712E-01-1.03294374E-02
10  2-1.01775055E-01-2.56174420E-02 1.04600437E-01 1.74536863E-01 6.37861783E-01
10  3-1.38531186E-01-3.61353636E-01-3.38073683E-01 1.17444424E-01 8.63663574E-03
10  4-6.56362462E-03 1.14390089E-02 1.57891322E-01-9.75377423E-03 6.96647006E-04
10  5-9.92511854E-03 1.36732501E-02-1.64345977E-02 4.06202030E-03-1.00636991E-01
10  6 4.50084444E-02 3.60678962E-02-1.72492840E-02 5.58231477E-02 3.81486625E-03
10  7 4.21759762E-03 1.28271793E-03 3.89772151E-03 6.49845281E-03 9.51386960E-03
10  8 1.19985018E-02-2.39094271E-04 2.48796604E-03 4.15450970E-04-1.64830484E-02
10  9-1.46263719E-02-2.16738855E-02-1.07274355E-02-5.46740213E-03-1.96560810E-02
10 10-1.30118269E-01-5.35782486E-02 1.49925129E-01-9.31148283E-03-7.26232361E-03
10 11 6.11576275E-03-2.10246597E-03-5.03582557E-03-3.17662257E-03 3.10792943E-04
10 12 1.58155380E-04-1.55729091E-04-2.95335580E-03-1.61862974E-03 2.96844779E-03
11  1-2.54819094E-02-2.25939023E-02-7.85330545E-03 3.71436826E-02-5.99120946E-03
11  2-4.49097689E-02 2.53178584E-03-3.93760465E-03 6.76175504E-02-1.38531186E-01
11  3 5.77131352E-01-2.31896796E-01 1.12396587E-01-1.37970089E-01 1.45273032E-02
11  4-2.10292573E-02 1.12123440E-02 2.83636419E-02-1.53257086E-03-9.75161463E-04
11  5-6.42839716E-03 6.51557931E-03-1.78641914E-02 4.16353121E-03 1.70668906E-02
11  6-2.41595043E-01 4.54247530E-02 3.57400773E-02-2.38818498E-02-1.03799515E-02
11  7 2.43323250E-05 4.93956601E-05 1.13083488E-03 7.27002847E-04 1.19951726E-03
11  8 2.38020373E-03-1.77740895E-04-1.67269343E-04 8.27437852E-04 1.98165625E-03
11  9 1.39506004E-03 1.95861222E-03-7.72543550E-03-3.91755823E-03-1.34907110E-02
11 10-5.74076267E-02-1.40372542E-01 1.47450746E-01 3.62843076E-02 5.64212527E-03
11 11-7.55674799E-03 9.54539421E-04 9.95911887E-04 5.53794709E-03 7.16742373E-04
11 12 8.00006799E-04-1.36441815E-04-1.98339449E-04 8.41338584E-04 3.27093254E-03
12  1-4.87647387E-02-4.88359995E-02-2.20826599E-02 6.91408574E-02-9.20040829E-03
12  2-7.63472633E-02 2.73249393E-03 6.93213638E-02 6.13582208E-02-3.61353636E-01
12  3-2.31896796E-01 5.55678787E-01 1.61163501E-01 2.53147798E-02-1.56033606E-01
12  4 4.73336444E-02-5.22718347E-03 6.15063067E-02-1.07819708E-02 8.88788648E-04
12  5-5.96418704E-03-6.30042186E-05 3.05419797E-02 3.18449040E-03 1.09173753E-02
12  6 5.47545769E-02-1.01204191E-01 1.87021215E-02-2.67784710E-02 1.30574262E-02
12  7 6.24844364E-05 3.75269137E-04 2.28949562E-03 2.25351865E-03 2.75642939E-03
12  8 5.53963293E-03-7.45195353E-04-7.29412986E-04 2.98332297E-04-1.43391966E-02
12  9-1.27805484E-02-1.83993623E-02 6.69021728E-05 4.07606465E-04-2.68335580E-03
12 10 1.31863117E-01 1.41738971E-01-3.20341753E-01-1.49668209E-02 4.58684946E-03
12 11 8.38526592E-03 2.10173505E-03 3.45366342E-03-6.87841497E-03-4.05048679E-04
12 12-1.05479168E-03-2.73090686E-04 5.08014794E-03 2.36408818E-03-1.08751783E-03
13  1 8.38119959E-02 7.87662697E-02 4.73066458E-02-1.05213556E-01-1.12783682E-02
13  2 5.70702526E-02-2.48137834E-02-8.94082493E-02-1.48068374E-01-3.38073683E-01
13  3 1.12396587E-01 1.61163501E-01 7.32956392E-01-1.99262106E-01-9.49796000E-02
13  4-1.99787755E-01-3.96285002E-02 1.12565952E-02 2.34211998E-02-1.27493980E-03
13  5-1.43241321E-03-2.22997228E-03-1.05487246E-03 3.13423165E-03-2.48002408E-02
13  6 1.26243373E-02-2.09020129E-02 6.22262581E-03-4.94246437E-03 1.05256065E-03
13  7-2.07391599E-03-1.00636435E-03-3.74227607E-03-4.98947425E-03-5.92622300E-03
13  8-1.06217293E-02 3.58284505E-04 2.27586332E-03 2.92226519E-04 8.21921693E-03
13  9 7.39615605E-03 1.06043401E-02 3.62511172E-03 1.77537828E-03 6.82728965E-03
13 10-1.19292500E-02-1.11966006E-03-1.31538781E-02-1.41320556E-01 1.47799687E-01
13 11-5.16158976E-02-1.05770436E-03-1.09449877E-02 4.53912484E-02-1.41986402E-03
13 12 4.11114865E-03-1.79515013E-04-9.02816161E-04-1.29871038E-03 5.94205531E-04
14  1 9.63394119E-03 1.13791998E-02-4.48397562E-04-3.16644740E-02-3.92425741E-03
14  2-1.86607152E-02-8.43323642E-03-1.03765924E-02-2.03050800E-02 1.17444424E-01
14  3-1.37970089E-01 2.53147798E-02-1.99262106E-01 6.78416061E-01-2.84413034E-01
14  4-4.19331488E-02-1.80730935E-01 1.39949183E-01-6.13078529E-03-2.66349317E-02
14  5 4.24991897E-02-5.13323290E-03 2.17560207E-03 2.45284416E-03 4.26048426E-02
14  6-3.04665971E-03-7.27286209E-03 5.91368305E-04-8.61853271E-03 6.36586351E-04
14  7-9.87319504E-04-6.62595481E-05-1.15018929E-03-1.17283176E-03-1.93945405E-03
14  8-2.62850315E-03 1.19116071E-03 2.07266423E-03 1.91227447E-03 2.28038709E-04
14  9 2.91474537E-04 5.53151480E-04 1.13950943E-05 2.73064569E-04-2.73088196E-04
14 10-1.94149395E-02 6.67756257E-03-4.74197205E-04 1.35899152E-01-3.31235434E-01
14 11 1.29679180E-01 4.06504395E-03 7.33312082E-03-7.87868064E-03 2.75193916E-03
14 12-4.98839130E-03 6.47188900E-04-2.89015668E-04 9.12111292E-04-1.40219000E-04
15  1-9.72193668E-02-8.56207580E-02-6.90490202E-02 5.74503653E-02 2.70018860E-03
15  2-7.37024587E-02-3.59563737E-04 4.30885508E-02 6.53138534E-02 8.63663574E-03
15  3 1.45273032E-02-1.56033606E-01-9.49796000E-02-2.84413034E-01 5.90938952E-01
15  4 1.58569897E-01 1.68310104E-01-2.38222580E-01-1.10822598E-02 6.05251080E-03
15  5-1.80535732E-02 2.98946217E-03-2.44500705E-03-3.97938844E-04-8.50127772E-04
15  6-1.06403404E-02 1.40932574E-02-3.52598903E-03 5.63403460E-03 1.57929668E-04
15  7 3.68720372E-03 1.60338331E-03 3.83445145E-03 5.65956920E-03 6.85306190E-03
15  8 9.87712842E-03 8.33564880E-04 3.54335905E-03 1.90226840E-03-5.35117803E-03
15  9-3.52796234E-03-5.32845245E-03-2.51569421E-03-6.97772135E-04-2.85061870E-03
15 10 3.96495770E-02-5.43687572E-03 6.02980262E-03-5.37273137E-02 1.46798013E-01
15 11-1.22889365E-01-9.97102642E-03-5.12477006E-03-6.55985928E-03 1.12910702E-03
15 12-1.37217317E-03 9.51974766E-04 9.74040724E-04 1.67069905E-04-1.12700418E-05
16  1-1.35761554E-02 3.08099769E-02 1.23256530E-02-3.97474074E-02-1.07790651E-02
16  2 1.14079127E-02-2.65205689E-03-1.39163996E-02-1.27010660E-02-6.56362462E-03
16  3-2.10292573E-02 4.73336444E-02-1.99787755E-01-4.19331488E-02 1.58569897E-01
16  4 8.29252288E-01-1.12008911E-01-2.79328171E-01-1.41624159E-01 7.30941786E-02
16  5 1.09516151E-02 1.06411566E-04 3.84378892E-02-8.41187122E-03-5.29244836E-03
16  6-3.78578216E-03-7.28190899E-03 2.40608662E-03 5.58937747E-05-1.85716368E-04
16  7 3.69994948E-03 2.91393809E-03 6.94982230E-03-5.82296318E-03-7.83494785E-03
16  8-1.19239493E-02-4.43546783E-05-1.45230501E-03-9.43189988E-04 1.22939058E-03
16  9-4.40057224E-04 2.26313758E-04 1.03889188E-03 2.00002998E-04-1.19208011E-03
16 10-7.47457816E-03 4.04965834E-03 1.70456308E-03 1.02633101E-02 9.39903763E-03
16 11-1.56526794E-02-4.36080533E-01 7.17528776E-02 7.51662338E-02 9.65689385E-03
16 12-2.13319522E-02 3.40241051E-03 1.01412700E-03 3.79876837E-03 9.58264779E-03
17  1 5.12142410E-02 2.27737335E-03 2.38625897E-02-4.98159522E-02-1.36752329E-02
17  2 1.82075741E-02 4.34086559E-03-1.60096930E-02-2.06384408E-02 1.14390089E-02
17  3 1.12123440E-02-5.22718347E-03-3.96285002E-02-1.80730935E-01 1.68310104E-01
17  4-1.12008911E-01 5.85485352E-01-2.56299439E-01 3.52716359E-02-2.74833816E-01
17  5 5.16033892E-02 3.06328184E-02-1.98544264E-02-4.04421121E-03-1.01861537E-02
17  6 1.67068221E-03-4.89430166E-03 3.05849009E-03-2.32494238E-03 1.13025461E-03
17  7-8.04778761E-03-3.91749162E-03-9.22223280E-03 1.14853056E-03 1.60532645E-03
17  8 1.83595376E-03 3.70374207E-04-9.58895437E-04-6.93315286E-04 2.05197751E-03
17  9 1.00333012E-03 1.02641077E-03 1.09846514E-03-2.51235021E-04-3.25034878E-05
17 10 4.08742383E-03 2.03566262E-03 3.68403065E-03-1.69904133E-02-1.12003340E-03
17 11 3.09844439E-02 7.92171210E-02-8.21767526E-02-7.45857685E-04 1.17074168E-02
17 12-1.04880270E-02-1.73078805E-03 1.04100967E-03 1.05264136E-03 2.88340153E-03
18  1 1.67580561E-01 1.53374930E-01 5.11119056E-02-1.59704531E-01-4.00414234E-02
18  2 8.53354361E-02 5.97258272E-03-9.15460031E-02-1.42942350E-01 1.57891322E-01
18  3 2.83636419E-02 6.15063067E-02 1.12565952E-02 1.39949183E-01-2.38222580E-01
18  4-2.79328171E-01-2.56299439E-01 3.75868363E-01 2.20500776E-02 7.47960135E-02
18  5-8.47908916E-02 7.01866362E-03-1.58208135E-02 7.22777341E-03-1.52388908E-02
18  6-2.52796758E-03-1.86331069E-02 4.64875163E-03-1.94433778E-03 2.35698802E-03
18  7-1.25962456E-02-5.27910579E-03-1.40910037E-02-1.79674604E-02-2.02093890E-02
18  8-3.24928673E-02-5.25044318E-04 1.98891419E-03-1.71573352E-03 9.02815925E-03
18  9 9.24047448E-03 1.10652836E-02 3.65146510E-03 1.28622748E-03 7.06264313E-03
18 10-2.31761119E-03-2.56477317E-03-1.38117357E-03 8.59332749E-03-3.86946998E-03
18 11-6.24032101E-03 9.34367709E-02 6.48939115E-03-6.73552871E-02-9.93385914E-03
18 12 2.33183346E-02 1.93855326E-03 6.48795084E-03 1.29639959E-03 4.38871043E-03
19  1 1.24303949E-03-7.30789008E-03 1.15044518E-03 2.06554700E-03 7.00578249E-04
19  2-2.09816120E-03 6.24804158E-04 1.95773308E-03 5.87894674E-03-9.75377423E-03
19  3-1.53257086E-03-1.07819708E-02 2.34211998E-02-6.13078529E-03-1.10822598E-02
19  4-1.41624159E-01 3.52716359E-02 2.20500776E-02 8.74583680E-01-1.73936906E-01
19  5-4.33690248E-01-5.25528182E-01 2.29760749E-01 2.47262343E-01-3.18345328E-02
19  6 3.69956793E-03 2.94090920E-02 6.91363006E-03-4.85493582E-03-2.57733615E-03
19  7-5.54569418E-04-3.39104949E-04-6.31344578E-04 1.10970820E-03-1.83095825E-03
19  8-1.44189016E-03 4.50411831E-05 6.66071336E-05 3.12081341E-05-4.96927850E-04
19  9-5.01731039E-04-4.92656481E-04-3.25119660E-04-4.15598633E-05-9.47071055E-04
19 10 4.19781111E-04 1.48916475E-03 3.56894672E-04 1.22612992E-03 2.72509279E-03
19 11 6.41573249E-03-1.87128645E-03 3.92651336E-02-9.98289306E-03-1.97132911E-01
19 12-1.14572542E-01 1.54746493E-01-2.53139747E-03-3.88658006E-03 6.42392550E-03
20  1-1.84437450E-02-3.14018456E-02-2.24497171E-02 1.24005960E-02 1.65437083E-03
20  2-5.39263506E-03-1.06439099E-03 6.79710119E-03 5.04103454E-03 6.96647006E-04
20  3-9.75161463E-04 8.88788648E-04-1.27493980E-03-2.66349317E-02 6.05251080E-03
20  4 7.30941786E-02-2.74833816E-01 7.47960135E-02-1.73936906E-01 7.53090925E-01
20  5-9.76594993E-02 1.99739386E-01-2.63220031E-01-7.83127834E-02-4.54819110E-03
20  6 3.51846411E-02-8.56126888E-03-1.09832581E-02-5.38409357E-03 9.54420287E-03
20  7 9.21292703E-04-7.38522407E-05 2.46240982E-04 1.10077013E-03-1.87786722E-03
20  8 8.36584640E-04 4.32005083E-04 2.58490433E-04 4.79659083E-04-7.07225459E-04
20  9-2.41186391E-04-1.38120142E-05 3.13902961E-04-5.05207556E-05 7.96010082E-04
20 10 9.49145166E-04-1.09674004E-03-3.13181689E-04 1.50463446E-03 1.54956265E-03
20 11 1.06543000E-03-5.92039283E-03-5.76060997E-03-1.59280702E-03-1.09802869E-01
20 12-1.82084502E-01 1.32750502E-01 3.55287433E-02-4.90046621E-03-1.82008260E-02
21  1-8.63560932E-03-2.43502638E-02-9.96162970E-03 6.75106682E-03 2.30532420E-03
21  2-3.83768634E-03-2.64242369E-03 4.97112596E-03 7.32421410E-03-9.92511854E-03
21  3-6.42839716E-03-5.96418704E-03-1.43241321E-03 4.24991897E-02-1.80535732E-02
21  4 1.09516151E-02 5.16033892E-02-8.47908916E-02-4.33690248E-01-9.76594993E-02
21  5 5.72761517E-01 2.54784274E-01-9.56913758E-02-2.23810892E-01 3.50148880E-02
21  6-1.26683120E-02-1.24277529E-02-1.85550473E-03 6.16885143E-03-5.01053296E-04
21  7-4.93122046E-04-3.64312128E-04-7.27848968E-04-7.07187838E-04-5.85610711E-03
21  8-6.90652994E-04 4.58111677E-04-2.76032520E-04 6.83798623E-04-7.88163166E-04
21  9-1.44963737E-03-8.65386136E-04-2.67644372E-04-2.46862438E-05-9.28895181E-04
21 10-6.19944782E-04-5.10940537E-04-9.56940136E-05 5.04020974E-03 4.87050653E-03
21 11-2.62793605E-03 1.86198903E-03-9.54715155E-03 2.36590117E-03 1.51808789E-01
21 12 1.35278184E-01-2.27612416E-01-5.61416534E-03 7.13047579E-03 9.76089931E-03
22  1-7.77082548E-03-6.55210040E-03-7.19716659E-03 5.22574692E-03 3.73219244E-04
22  2-2.48477086E-03-1.12533971E-03 4.10093704E-03 2.91869058E-03 1.36732501E-02
22  3 6.51557931E-03-6.30042186E-05-2.22997228E-03-5.13323290E-03 2.98946217E-03
22  4 1.06411566E-04 3.06328184E-02 7.01866362E-03-5.25528182E-01 1.99739386E-01
22  5 2.54784274E-01 8.00289207E-01-3.02387726E-01-3.64261114E-01-1.40625410E-01
22  6-3.87996282E-02 5.02150993E-02-4.27698882E-02-1.20140194E-02 5.41214763E-02
22  7 7.03333882E-04 2.14180895E-04 4.57684100E-04-1.27522270E-04-4.58672025E-04
22  8 3.92239276E-05 2.21454441E-04 2.53563410E-05 7.16865640E-05-1.76594729E-04
22  9-5.70928236E-04 2.54895510E-04 2.93459185E-04-2.32571528E-04 4.34159837E-04
22 10-5.32767342E-04 2.63702850E-03 1.04694238E-04 2.41694177E-04-6.96897295E-04
22 11-6.34710791E-04-1.97793307E-05-9.46680163E-04-9.35553753E-04-6.76430129E-03
22 12 1.86618692E-02 6.76945862E-03-9.30843354E-02 1.04890909E-01-4.60295356E-03
23  1 2.07854137E-03 6.93635596E-04 1.27785235E-03-6.28166628E-04-1.76243545E-05
23  2-4.35883986E-04 2.22654329E-04 1.93094672E-03 1.96925611E-04-1.64345977E-02
23  3-1.78641914E-02 3.05419797E-02-1.05487246E-03 2.17560207E-03-2.44500705E-03
23  4 3.84378892E-02-1.98544264E-02-1.58208135E-02 2.29760749E-01-2.63220031E-01
23  5-9.56913758E-02-3.02387726E-01 8.98978169E-01-6.41686538E-02-4.43430885E-02
23  6-2.00482984E-01 7.35370876E-02 1.18213654E-02 2.80623731E-02-1.12515700E-02
23  7-3.05641539E-04-1.87438388E-04-1.11497029E-04-1.92934801E-05-6.04157045E-04
23  8 6.76470560E-05-6.86733147E-05 5.58455396E-05 1.73913191E-05-4.31028004E-04
23  9-6.88139813E-04-4.76533772E-04 2.10897978E-04 2.46729307E-04 2.23375360E-04
23 10 2.95933939E-03-5.39394055E-03-5.21073561E-04-7.12065431E-04 1.66700575E-04
23 11-1.20876364E-03 4.23063277E-04-5.50352461E-03 2.63056741E-03-1.91853045E-02
23 12 1.60737257E-02 1.28546021E-02 9.96561000E-02-4.34567526E-01 7.07837834E-02
24  1 6.35661132E-04-1.08153277E-04 1.07680482E-03 9.77766609E-04-2.27481911E-04
24  2-4.34422780E-04 3.92252719E-04 2.70375504E-03 1.92772669E-03 4.06202030E-03
24  3 4.16353121E-03 3.18449040E-03 3.13423165E-03 2.45284416E-03-3.97938844E-04
24  4-8.41187122E-03-4.04421121E-03 7.22777341E-03 2.47262343E-01-7.83127834E-02
24  5-2.23810892E-01-3.64261114E-01-6.41686538E-02 4.50060217E-01 4.82290529E-02
24  6 7.51403122E-02-1.57121485E-01 4.77296434E-02 5.21905076E-03-1.45971404E-02
24  7-1.41575598E-04-4.75962494E-04 4.60550674E-06 6.07562075E-04-3.85929546E-04
24  8 7.39540396E-04-1.93409953E-04-3.31724364E-05 6.99098862E-05-1.13382725E-04
24  9 1.68148650E-04-4.25258808E-04 6.79167888E-05-1.16825909E-05 2.01063790E-04
24 10 1.24625677E-03 2.17425145E-04 1.57669341E-03 5.13502937E-04-1.34895368E-04
24 11 5.81310510E-04-3.38816970E-04 3.25415932E-03 6.01445496E-04 2.33008670E-02
24 12-1.43054290E-02 3.25154002E-03-4.69866259E-03 6.88885676E-02-7.37167222E-02
25  1 5.05525800E-03 3.93294766E-03 2.58199884E-03-2.79409325E-03 1.12562238E-03
25  2 1.32599500E-03 2.58059600E-03-5.35673055E-03-1.63116320E-03-1.00636991E-01
25  3 1.70668906E-02 1.09173753E-02-2.48002408E-02 4.26048426E-02-8.50127772E-04
25  4-5.29244836E-03-1.01861537E-02-1.52388908E-02-3.18345328E-02-4.54819110E-03
25  5 3.50148880E-02-1.40625410E-01-4.43430885E-02 4.82290529E-02 9.26253123E-01
25  6-2.65547617E-01-4.22040501E-01-6.44990466E-01 2.71298925E-01 3.38628879E-01
25  7-7.71869875E-04-3.02080211E-04-5.10040080E-04-2.00895674E-04-9.90020922E-04
25  8-3.97105551E-04-3.86276710E-05-6.33948614E-05 6.62416824E-04 1.17004228E-04
25  9-3.57980916E-03-4.35022704E-03-4.42693895E-04 3.39595182E-04-8.11006697E-04
25 10 8.68326235E-03-1.65540946E-02 2.26853569E-03-3.91082990E-03 3.05430187E-03
25 11 5.62305807E-03 4.50612341E-04-6.30173213E-04-2.39873926E-04 3.72519593E-03
25 12 4.58285049E-03 8.47956927E-03 9.47488545E-03 8.09567414E-03-7.66303318E-03
26  1 3.30883966E-03 9.61529434E-04 1.87722688E-03-5.26792998E-03 3.94794856E-04
26  2 6.82962998E-03-9.88715615E-03-2.49669936E-02-2.43099256E-02 4.50084444E-02
26  3-2.41595043E-01 5.47545769E-02 1.26243373E-02-3.04665971E-03-1.06403404E-02
26  4-3.78578216E-03 1.67068221E-03-2.52796758E-03 3.69956793E-03 3.51846411E-02
26  5-1.26683120E-02-3.87996282E-02-2.00482984E-01 7.51403122E-02-2.65547617E-01
26  6 6.91610502E-01 3.27598097E-02 2.75205071E-01-2.33586920E-01-1.46370463E-01
26  7 2.45974147E-04-5.76371902E-04 2.08574281E-04 5.71756405E-04 8.14414568E-04
26  8 1.14843993E-03-8.31939883E-05-3.32781222E-04 2.07932761E-04 1.21186036E-03
26  9-1.05086940E-03 3.51822049E-04 3.17721959E-05 3.37856079E-05 7.65507267E-04
26 10 5.04434171E-03-1.07461460E-02-4.69835515E-03-4.18360356E-03 6.63472444E-04
26 11 2.41589619E-03-1.80030901E-04-1.97061243E-03 8.83447048E-04 5.56790392E-03
26 12-4.07778996E-03 3.41737634E-03-2.47842938E-02-8.90045734E-03 2.04553618E-02
27  1 8.21096596E-03 7.73106968E-03 3.09140469E-04-9.03863199E-03 7.36779112E-04
27  2 6.86103877E-03-1.64745793E-03-2.75837532E-02-1.90562578E-02 3.60678962E-02
27  3 4.54247530E-02-1.01204191E-01-2.09020129E-02-7.27286209E-03 1.40932574E-02
27  4-7.28190899E-03-4.89430166E-03-1.86331069E-02 2.94090920E-02-8.56126888E-03
27  5-1.24277529E-02 5.02150993E-02 7.35370876E-02-1.57121485E-01-4.22040501E-01
27  6 3.27598097E-02 5.46248873E-01 3.38088661E-01-1.46062940E-01-2.71178717E-01
27  7-6.93498861E-04 2.64855251E-04-5.22325669E-04-9.36539549E-04-1.56068821E-03
27  8-2.11456171E-03 4.62881068E-04 2.69913697E-05 3.09846832E-04-2.73865871E-04
27  9-4.74104261E-03-2.54155279E-04-3.94468506E-04 5.41678704E-05-2.41530284E-04
27 10-1.42956503E-02 2.96466378E-02-1.31285036E-04 3.51371271E-03 4.43703048E-03
27 11 3.45027226E-03-2.37655163E-04 2.27199518E-03 5.90307458E-05 7.66741440E-03
27 12 5.62270860E-03 9.57861099E-03 4.10708785E-03-1.83653841E-03 1.97639036E-03
28  1-2.14585609E-03-1.53087933E-03-2.22848701E-03 1.40362856E-03-1.45206689E-04
28  2 1.88147476E-04-2.76194446E-03-1.75853773E-03-3.34882445E-03-1.72492840E-02
28  3 3.57400773E-02 1.87021215E-02 6.22262581E-03 5.91368305E-04-3.52598903E-03
28  4 2.40608662E-03 3.05849009E-03 4.64875163E-03 6.91363006E-03-1.09832581E-02
28  5-1.85550473E-03-4.27698882E-02 1.18213654E-02 4.77296434E-02-6.44990466E-01
28  6 2.75205071E-01 3.38088661E-01 6.94461250E-01-3.10613346E-01-3.94443689E-01
28  7 3.25013757E-04 8.99087798E-05 2.40616675E-04 2.56056909E-05 1.90822581E-04
28  8 1.62448182E-04 1.32473973E-04-1.61766203E-04-2.07373397E-04 3.17197676E-05
28  9 5.27166814E-05 8.76333166E-04 1.58263581E-04 2.63213080E-05 5.18832455E-04
28 10-4.49891984E-05-2.48862646E-03-7.40428223E-04-1.10618539E-03-7.20549351E-04
28 11-9.91391907E-04-1.26372772E-04-8.25308360E-05-3.42465185E-04-2.27173833E-03
28 12 5.27600315E-04-9.44928660E-04 1.38647017E-03 1.18098767E-03-2.52604062E-03
29  1 9.08926171E-04 1.44258686E-03 8.04586895E-04-1.28604248E-03-4.97003953E-04
29  2-4.74646645E-04 3.66039843E-03 5.30730232E-04 1.28728884E-03 5.58231477E-02
29  3-2.38818498E-02-2.67784710E-02-4.94246437E-03-8.61853271E-03 5.63403460E-03
29  4 5.58937747E-05-2.32494238E-03-1.94433778E-03-4.85493582E-03-5.38409357E-03
29  5 6.16885143E-03-1.20140194E-02 2.80623731E-02 5.21905076E-03 2.71298925E-01
29  6-2.33586920E-01-1.46062940E-01-3.10613346E-01 2.35314971E-01 1.60767952E-01
29  7-1.28078682E-04 1.80339242E-04-1.48670060E-04-2.16530167E-04-3.77213541E-04
29  8-6.35598024E-04 6.93098343E-05 3.11540774E-04 2.52122026E-05-1.86521851E-04
29  9-1.84250147E-04 1.28313908E-04-3.47525411E-05 2.06657619E-04 3.21801285E-05
29 10-2.07266352E-03 4.71674846E-03-1.00614238E-03 3.10670184E-03 5.24678456E-04
29 11-4.96450354E-04 9.26704471E-05 1.03193907E-03 8.38001007E-05-8.84390443E-04