!File created by the GAMESS Input Deck Generator Plugin for Avogadro
 $BASIS GBASIS=STO NGAUSS=3 $END
 $CONTRL SCFTYP=RHF RUNTYP=SADPOINT $END
 $STATPT hssend=.t. OPTTOL=0.0005 NSTEP=50 $END
 $STATPT HESS=calc ihrep=5 $END
 $FORCE nvib=2 $END
 $ZMAT DLC=.t. auto=.t. nonvdw(1)=1,6,3,4,4,5,5,6,1,2,2,3 $END
!$ZMAT IFZMAT(1)=1,1,6,1,3,4 fvalue(1)=2.00,2.00 $END


 $DATA 
Title
C1
C     6.0     3.60323048     0.12533462    -2.37279081
C     6.0     2.61589193    -0.66348153    -1.77137446
C     6.0     1.64764786    -0.06073001    -0.95995623
C     6.0     2.64533520     0.79331636     0.54842860
C     6.0     3.99533463     0.52560496     0.29068387
C     6.0     4.53724766     1.07436252    -0.88049108
C     6.0     4.11483479     2.48899722    -1.18198240
C     6.0     3.04844284     3.02936554    -0.62769765
C     6.0     2.18269086     2.24011540     0.32721400
O     8.0     1.19344604     2.70800209     0.87516320
H     1.0     4.40659237    -0.38347289    -2.89536214
H     1.0     3.28660512     1.03184211    -2.87394428
H     1.0     2.87135291    -1.69373524    -1.55212355
H     1.0     1.18345737     0.84705329    -1.32674801
H     1.0     0.94933677    -0.70418876    -0.43558761
H     1.0     2.19181061     0.32738262     1.41848397
H     1.0     4.44581509    -0.36495826     0.71164417
H     1.0     5.57544470     0.85635537    -1.11138797
H     1.0     4.73093176     3.04838800    -1.87753701
H     1.0     2.75759697     4.05448008    -0.81596518
 $END
